100 10
51 94
12 63
88 20
82 24
26 15
61 34
6 34
86 59
9 37
30 53
93 90
71 8
13 13
55 68
64 4
39 99
63 74
68 44
27 96
9 50
38 97
82 45
30 4
90 59
61 55
2 5
63 89
22 64
62 4
34 36
79 11
69 32
55 15
7 90
45 77
72 39
90 77
77 95
65 51
100 48
64 19
93 15
100 19
46 89
73 47
5 23
51 33
73 15
26 58
35 60
74 52
82 96
55 71
72 94
61 43
19 25
4 40
70 57
59 69
70 75
85 64
46 42
5 55
25 76
29 3
83 67
58 77
5 18
64 43
43 76
38 7
59 48
35 7
80 88
31 94
2 79
24 59
51 10
94 45
5 66
72 91
4 19
23 2
89 22
55 70
70 82
96 18
89 36
32 17
60 45
24 60
1 80
8 94
2 89
35 6
58 89
58 60
79 84
89 35
32 60
349 433
352 419
653 732
399 491
504 625
377 458
524 612
628 757
661 766
386 447
